120 3570 
1 69 1
1 68 1
1 5 1
1 81 1
1 42 1
1 75 1
1 116 1
1 89 1
1 34 1
1 59 1
1 13 1
1 78 1
1 14 1
1 54 1
1 47 1
1 105 1
1 32 1
1 73 1
1 113 1
1 109 1
1 46 1
1 23 1
1 70 1
1 76 1
1 31 1
1 107 1
1 19 1
1 7 1
1 67 1
1 57 1
1 117 1
1 43 1
1 37 1
1 79 1
1 17 1
1 26 1
1 80 1
1 95 1
1 65 1
1 12 1
1 71 1
1 2 1
1 62 1
1 103 1
1 90 1
1 16 1
1 91 1
1 58 1
1 39 1
1 24 1
1 102 1
1 29 1
1 92 1
1 74 1
1 110 1
1 96 1
1 36 1
1 60 1
1 84 1
1 77 1
2 23 1
2 66 1
2 99 1
2 91 1
2 89 1
2 57 1
2 48 1
2 119 1
2 36 1
2 62 1
2 25 1
2 60 1
2 5 1
2 28 1
2 113 1
2 115 1
2 50 1
2 9 1
2 35 1
2 64 1
2 61 1
2 32 1
2 86 1
2 105 1
2 10 1
2 81 1
2 55 1
2 51 1
2 47 1
2 27 1
2 18 1
2 41 1
2 45 1
2 118 1
2 107 1
2 87 1
2 49 1
2 92 1
2 71 1
2 110 1
2 52 1
2 74 1
2 46 1
2 95 1
2 85 1
2 120 1
2 14 1
2 79 1
2 73 1
2 17 1
2 80 1
2 40 1
2 56 1
2 24 1
2 117 1
2 59 1
2 19 1
2 78 1
2 12 1
2 82 1
2 72 1
2 8 1
2 67 1
3 103 1
3 80 1
3 19 1
3 37 1
3 11 1
3 81 1
3 69 1
3 59 1
3 35 1
3 10 1
3 64 1
3 53 1
3 63 1
3 57 1
3 116 1
3 97 1
3 14 1
3 32 1
3 48 1
3 60 1
3 58 1
3 8 1
3 72 1
3 88 1
3 68 1
3 62 1
3 118 1
3 30 1
3 38 1
3 102 1
3 15 1
3 17 1
3 106 1
3 43 1
3 79 1
3 7 1
3 42 1
3 93 1
3 109 1
3 95 1
3 74 1
3 99 1
3 112 1
3 76 1
3 70 1
3 5 1
3 73 1
3 119 1
3 117 1
3 51 1
3 23 1
3 67 1
3 21 1
3 96 1
3 9 1
3 105 1
3 83 1
3 27 1
3 113 1
3 87 1
3 41 1
3 71 1
3 40 1
3 66 1
3 13 1
3 82 1
4 105 1
4 35 1
4 58 1
4 48 1
4 47 1
4 43 1
4 27 1
4 21 1
4 79 1
4 13 1
4 89 1
4 90 1
4 28 1
4 76 1
4 17 1
4 74 1
4 91 1
4 23 1
4 118 1
4 78 1
4 94 1
4 16 1
4 71 1
4 84 1
4 54 1
4 32 1
4 50 1
4 80 1
4 9 1
4 52 1
4 101 1
4 99 1
4 115 1
4 109 1
4 61 1
4 11 1
4 57 1
4 103 1
4 34 1
4 75 1
4 55 1
4 96 1
4 31 1
4 38 1
4 92 1
4 6 1
4 107 1
4 73 1
4 59 1
4 22 1
4 106 1
4 70 1
4 69 1
4 85 1
4 30 1
4 49 1
4 40 1
4 97 1
4 62 1
4 51 1
4 41 1
4 119 1
4 44 1
4 72 1
4 66 1
4 36 1
4 24 1
4 14 1
5 77 1
5 13 1
5 105 1
5 38 1
5 61 1
5 24 1
5 92 1
5 60 1
5 25 1
5 20 1
5 9 1
5 66 1
5 30 1
5 79 1
5 94 1
5 50 1
5 113 1
5 58 1
5 90 1
5 18 1
5 8 1
5 44 1
5 82 1
5 23 1
5 48 1
5 16 1
5 68 1
5 49 1
5 99 1
5 78 1
5 100 1
5 10 1
5 35 1
5 93 1
5 71 1
5 84 1
5 119 1
5 116 1
5 39 1
5 109 1
5 102 1
5 89 1
5 40 1
5 27 1
5 74 1
5 67 1
5 12 1
5 46 1
5 70 1
5 81 1
5 72 1
6 87 1
6 43 1
6 35 1
6 56 1
6 89 1
6 22 1
6 41 1
6 20 1
6 99 1
6 80 1
6 46 1
6 120 1
6 51 1
6 48 1
6 79 1
6 57 1
6 83 1
6 63 1
6 15 1
6 53 1
6 97 1
6 119 1
6 52 1
6 32 1
6 68 1
6 38 1
6 112 1
6 55 1
6 17 1
6 67 1
6 30 1
6 95 1
6 12 1
6 91 1
6 66 1
6 31 1
6 106 1
6 78 1
6 62 1
6 36 1
6 11 1
6 109 1
6 77 1
6 18 1
6 19 1
6 8 1
6 45 1
6 16 1
6 23 1
6 47 1
6 33 1
6 113 1
6 108 1
6 100 1
7 89 1
7 23 1
7 99 1
7 21 1
7 106 1
7 78 1
7 22 1
7 93 1
7 119 1
7 109 1
7 60 1
7 68 1
7 115 1
7 53 1
7 8 1
7 27 1
7 9 1
7 102 1
7 98 1
7 44 1
7 79 1
7 62 1
7 74 1
7 95 1
7 58 1
7 39 1
7 46 1
7 97 1
7 84 1
7 70 1
7 41 1
7 45 1
7 55 1
7 11 1
7 57 1
7 59 1
7 29 1
7 20 1
7 51 1
7 43 1
7 42 1
7 56 1
7 26 1
7 85 1
7 76 1
7 81 1
7 87 1
7 103 1
7 69 1
7 12 1
7 34 1
7 72 1
7 61 1
7 52 1
8 41 1
8 67 1
8 106 1
8 93 1
8 104 1
8 55 1
8 69 1
8 64 1
8 31 1
8 112 1
8 120 1
8 13 1
8 74 1
8 80 1
8 22 1
8 28 1
8 98 1
8 27 1
8 77 1
8 58 1
8 42 1
8 73 1
8 79 1
8 66 1
8 33 1
8 84 1
8 36 1
8 111 1
8 96 1
8 49 1
8 92 1
8 81 1
8 12 1
8 17 1
8 18 1
8 20 1
8 9 1
8 34 1
8 89 1
8 57 1
8 90 1
8 53 1
8 26 1
8 54 1
8 76 1
8 15 1
8 39 1
8 35 1
8 86 1
8 119 1
8 94 1
8 24 1
8 116 1
8 23 1
8 37 1
8 72 1
9 68 1
9 86 1
9 76 1
9 61 1
9 44 1
9 66 1
9 56 1
9 17 1
9 37 1
9 107 1
9 103 1
9 21 1
9 102 1
9 28 1
9 82 1
9 75 1
9 73 1
9 110 1
9 106 1
9 50 1
9 58 1
9 45 1
9 70 1
9 108 1
9 96 1
9 94 1
9 120 1
9 46 1
9 64 1
9 113 1
9 78 1
9 40 1
9 54 1
9 111 1
9 114 1
9 67 1
9 99 1
9 87 1
9 11 1
9 100 1
9 90 1
9 39 1
9 105 1
9 36 1
9 49 1
9 81 1
9 72 1
9 18 1
9 23 1
9 85 1
9 80 1
9 93 1
9 32 1
9 101 1
9 43 1
10 34 1
10 63 1
10 48 1
10 11 1
10 72 1
10 110 1
10 106 1
10 107 1
10 67 1
10 30 1
10 54 1
10 39 1
10 37 1
10 47 1
10 68 1
10 92 1
10 22 1
10 108 1
10 24 1
10 113 1
10 88 1
10 44 1
10 79 1
10 26 1
10 29 1
10 89 1
10 78 1
10 21 1
10 53 1
10 60 1
10 51 1
10 95 1
10 76 1
10 31 1
10 42 1
10 93 1
10 16 1
10 56 1
10 13 1
10 116 1
10 15 1
10 28 1
10 61 1
10 57 1
10 77 1
10 118 1
10 96 1
10 82 1
10 32 1
10 38 1
10 112 1
10 27 1
10 35 1
10 65 1
10 85 1
10 18 1
10 91 1
10 80 1
10 102 1
11 96 1
11 54 1
11 105 1
11 77 1
11 43 1
11 99 1
11 15 1
11 116 1
11 36 1
11 47 1
11 73 1
11 83 1
11 21 1
11 13 1
11 50 1
11 113 1
11 46 1
11 28 1
11 29 1
11 107 1
11 18 1
11 35 1
11 20 1
11 41 1
11 58 1
11 63 1
11 23 1
11 84 1
11 19 1
11 89 1
11 85 1
11 76 1
11 14 1
11 91 1
11 31 1
11 44 1
11 53 1
11 38 1
11 17 1
11 48 1
11 86 1
11 102 1
11 59 1
11 110 1
11 112 1
11 55 1
11 22 1
11 68 1
11 82 1
11 16 1
11 66 1
11 62 1
11 111 1
11 75 1
11 65 1
11 108 1
11 39 1
11 69 1
12 51 1
12 69 1
12 47 1
12 48 1
12 33 1
12 103 1
12 58 1
12 20 1
12 54 1
12 45 1
12 107 1
12 82 1
12 95 1
12 24 1
12 117 1
12 21 1
12 89 1
12 27 1
12 17 1
12 59 1
12 112 1
12 36 1
12 88 1
12 22 1
12 29 1
12 68 1
12 62 1
12 92 1
12 70 1
12 73 1
12 50 1
12 43 1
12 34 1
12 72 1
12 81 1
12 93 1
12 26 1
12 97 1
12 75 1
12 71 1
12 16 1
12 56 1
12 83 1
12 101 1
12 52 1
12 78 1
12 106 1
12 14 1
12 38 1
12 96 1
12 91 1
12 25 1
12 57 1
13 73 1
13 95 1
13 28 1
13 30 1
13 88 1
13 72 1
13 58 1
13 50 1
13 117 1
13 107 1
13 34 1
13 71 1
13 39 1
13 61 1
13 84 1
13 76 1
13 24 1
13 75 1
13 116 1
13 15 1
13 26 1
13 69 1
13 46 1
13 32 1
13 43 1
13 59 1
13 29 1
13 91 1
13 101 1
13 68 1
13 90 1
13 35 1
13 86 1
13 111 1
13 103 1
13 99 1
13 118 1
13 31 1
13 102 1
13 45 1
13 108 1
13 56 1
13 62 1
13 83 1
13 48 1
13 36 1
13 74 1
13 21 1
13 106 1
13 105 1
13 78 1
13 66 1
13 33 1
13 104 1
13 42 1
14 117 1
14 120 1
14 57 1
14 68 1
14 61 1
14 62 1
14 70 1
14 40 1
14 55 1
14 92 1
14 71 1
14 72 1
14 60 1
14 27 1
14 48 1
14 44 1
14 56 1
14 21 1
14 88 1
14 108 1
14 30 1
14 46 1
14 86 1
14 84 1
14 15 1
14 107 1
14 43 1
14 49 1
14 19 1
14 33 1
14 65 1
14 25 1
14 97 1
14 96 1
14 47 1
14 90 1
14 76 1
14 118 1
14 110 1
14 24 1
14 102 1
14 109 1
14 77 1
14 53 1
14 23 1
14 73 1
14 54 1
14 78 1
14 64 1
14 100 1
14 58 1
14 38 1
14 74 1
14 50 1
14 42 1
14 17 1
14 87 1
14 106 1
14 80 1
14 35 1
15 109 1
15 104 1
15 59 1
15 21 1
15 18 1
15 117 1
15 69 1
15 112 1
15 75 1
15 95 1
15 39 1
15 50 1
15 34 1
15 53 1
15 37 1
15 97 1
15 72 1
15 91 1
15 26 1
15 62 1
15 80 1
15 38 1
15 43 1
15 92 1
15 107 1
15 47 1
15 101 1
15 25 1
15 84 1
15 118 1
15 106 1
15 44 1
15 87 1
15 28 1
15 78 1
15 52 1
15 33 1
15 19 1
15 70 1
15 65 1
15 46 1
15 88 1
15 85 1
15 77 1
15 110 1
15 24 1
15 42 1
15 66 1
15 94 1
15 116 1
15 31 1
15 120 1
16 88 1
16 72 1
16 37 1
16 112 1
16 61 1
16 42 1
16 59 1
16 95 1
16 107 1
16 96 1
16 32 1
16 67 1
16 18 1
16 109 1
16 102 1
16 90 1
16 29 1
16 68 1
16 117 1
16 21 1
16 31 1
16 41 1
16 70 1
16 92 1
16 104 1
16 86 1
16 76 1
16 101 1
16 52 1
16 74 1
16 87 1
16 25 1
16 73 1
16 114 1
16 51 1
16 81 1
16 62 1
16 94 1
16 57 1
16 48 1
16 89 1
16 91 1
16 17 1
16 26 1
16 84 1
16 49 1
16 69 1
16 28 1
16 106 1
17 87 1
17 85 1
17 68 1
17 73 1
17 86 1
17 94 1
17 100 1
17 83 1
17 81 1
17 112 1
17 72 1
17 96 1
17 23 1
17 69 1
17 38 1
17 97 1
17 29 1
17 118 1
17 18 1
17 67 1
17 26 1
17 60 1
17 20 1
17 107 1
17 30 1
17 106 1
17 40 1
17 82 1
17 78 1
17 55 1
17 47 1
17 120 1
17 22 1
17 116 1
17 95 1
17 115 1
17 98 1
17 53 1
17 25 1
17 64 1
17 70 1
17 50 1
17 21 1
17 111 1
17 61 1
17 79 1
17 77 1
17 36 1
17 54 1
17 49 1
17 44 1
17 48 1
17 39 1
17 31 1
17 57 1
17 56 1
18 20 1
18 31 1
18 80 1
18 85 1
18 66 1
18 112 1
18 76 1
18 119 1
18 68 1
18 84 1
18 86 1
18 26 1
18 53 1
18 99 1
18 82 1
18 54 1
18 42 1
18 46 1
18 77 1
18 108 1
18 120 1
18 115 1
18 98 1
18 81 1
18 106 1
18 70 1
18 100 1
18 65 1
18 89 1
18 109 1
18 78 1
18 41 1
18 94 1
18 37 1
18 44 1
18 40 1
18 21 1
18 32 1
18 43 1
18 61 1
18 30 1
18 117 1
18 110 1
18 97 1
18 107 1
18 118 1
18 92 1
18 47 1
18 102 1
18 57 1
18 101 1
18 23 1
18 56 1
18 19 1
18 113 1
18 48 1
19 37 1
19 102 1
19 28 1
19 115 1
19 76 1
19 54 1
19 112 1
19 30 1
19 78 1
19 85 1
19 29 1
19 69 1
19 23 1
19 57 1
19 35 1
19 64 1
19 95 1
19 75 1
19 46 1
19 101 1
19 73 1
19 60 1
19 24 1
19 109 1
19 33 1
19 53 1
19 25 1
19 87 1
19 110 1
19 58 1
19 66 1
19 103 1
19 27 1
19 48 1
19 70 1
19 61 1
19 86 1
19 118 1
19 116 1
19 55 1
19 105 1
19 83 1
19 21 1
19 108 1
19 50 1
19 71 1
19 106 1
19 98 1
20 103 1
20 90 1
20 21 1
20 79 1
20 120 1
20 87 1
20 76 1
20 39 1
20 88 1
20 114 1
20 92 1
20 77 1
20 100 1
20 42 1
20 29 1
20 46 1
20 37 1
20 58 1
20 84 1
20 36 1
20 109 1
20 61 1
20 45 1
20 99 1
20 116 1
20 50 1
20 63 1
20 73 1
20 108 1
20 52 1
20 82 1
20 44 1
20 54 1
20 96 1
20 59 1
20 80 1
20 69 1
20 104 1
20 81 1
20 111 1
20 60 1
20 64 1
20 70 1
21 80 1
21 47 1
21 38 1
21 56 1
21 32 1
21 72 1
21 50 1
21 78 1
21 113 1
21 89 1
21 88 1
21 117 1
21 60 1
21 82 1
21 67 1
21 114 1
21 91 1
21 74 1
21 30 1
21 115 1
21 95 1
21 49 1
21 96 1
21 55 1
21 68 1
21 69 1
21 84 1
21 46 1
21 64 1
21 106 1
21 33 1
21 108 1
21 70 1
21 66 1
21 99 1
21 51 1
21 53 1
21 26 1
21 63 1
21 85 1
21 34 1
21 39 1
21 57 1
21 77 1
21 116 1
21 86 1
21 65 1
21 58 1
21 79 1
22 42 1
22 113 1
22 60 1
22 38 1
22 115 1
22 44 1
22 71 1
22 106 1
22 36 1
22 73 1
22 92 1
22 97 1
22 40 1
22 72 1
22 53 1
22 98 1
22 116 1
22 94 1
22 117 1
22 103 1
22 61 1
22 45 1
22 47 1
22 91 1
22 46 1
22 105 1
22 86 1
22 112 1
22 48 1
22 110 1
22 43 1
22 104 1
22 74 1
22 33 1
22 25 1
22 26 1
22 114 1
22 90 1
22 102 1
22 23 1
22 58 1
22 95 1
22 76 1
22 120 1
22 96 1
22 75 1
23 36 1
23 91 1
23 79 1
23 70 1
23 90 1
23 87 1
23 41 1
23 81 1
23 45 1
23 75 1
23 98 1
23 29 1
23 105 1
23 115 1
23 114 1
23 54 1
23 116 1
23 24 1
23 56 1
23 117 1
23 86 1
23 67 1
23 104 1
23 102 1
23 30 1
23 31 1
23 113 1
23 88 1
23 77 1
23 99 1
23 110 1
23 62 1
23 61 1
23 84 1
23 65 1
23 109 1
23 69 1
23 120 1
23 118 1
23 34 1
23 66 1
23 46 1
23 39 1
23 52 1
23 96 1
23 76 1
23 49 1
23 68 1
23 50 1
23 32 1
24 51 1
24 52 1
24 111 1
24 76 1
24 25 1
24 105 1
24 53 1
24 37 1
24 39 1
24 41 1
24 27 1
24 89 1
24 61 1
24 96 1
24 102 1
24 85 1
24 62 1
24 101 1
24 48 1
24 30 1
24 57 1
24 107 1
24 118 1
24 100 1
24 56 1
24 82 1
24 113 1
24 50 1
24 114 1
24 35 1
24 63 1
24 32 1
24 97 1
24 69 1
24 109 1
24 117 1
24 112 1
24 99 1
24 116 1
24 91 1
24 65 1
25 110 1
25 91 1
25 108 1
25 95 1
25 43 1
25 50 1
25 98 1
25 46 1
25 27 1
25 105 1
25 62 1
25 114 1
25 94 1
25 58 1
25 86 1
25 83 1
25 69 1
25 80 1
25 81 1
25 107 1
25 93 1
25 45 1
25 88 1
25 102 1
25 75 1
25 89 1
25 72 1
25 82 1
25 66 1
25 36 1
25 32 1
25 55 1
25 47 1
25 59 1
25 56 1
25 70 1
25 104 1
25 92 1
25 34 1
25 78 1
25 84 1
25 73 1
26 118 1
26 99 1
26 97 1
26 106 1
26 79 1
26 46 1
26 54 1
26 77 1
26 51 1
26 90 1
26 100 1
26 67 1
26 41 1
26 27 1
26 87 1
26 72 1
26 68 1
26 117 1
26 91 1
26 32 1
26 95 1
26 108 1
26 63 1
26 45 1
26 75 1
26 58 1
26 57 1
26 93 1
26 102 1
26 65 1
26 116 1
26 88 1
26 70 1
26 98 1
26 96 1
26 89 1
26 64 1
26 44 1
26 86 1
26 56 1
26 31 1
26 28 1
26 59 1
26 94 1
26 114 1
26 101 1
26 104 1
26 69 1
26 40 1
26 48 1
27 89 1
27 115 1
27 68 1
27 55 1
27 30 1
27 46 1
27 50 1
27 83 1
27 71 1
27 51 1
27 70 1
27 34 1
27 35 1
27 95 1
27 64 1
27 107 1
27 84 1
27 80 1
27 43 1
27 118 1
27 91 1
27 81 1
27 117 1
27 45 1
27 28 1
27 108 1
27 110 1
27 78 1
27 72 1
27 39 1
27 85 1
27 99 1
27 40 1
27 102 1
27 31 1
27 94 1
27 88 1
27 67 1
27 36 1
27 37 1
27 82 1
27 106 1
27 48 1
28 80 1
28 50 1
28 113 1
28 108 1
28 118 1
28 98 1
28 96 1
28 57 1
28 44 1
28 49 1
28 67 1
28 81 1
28 114 1
28 62 1
28 56 1
28 38 1
28 89 1
28 78 1
28 29 1
28 70 1
28 117 1
28 71 1
28 119 1
28 75 1
28 79 1
28 39 1
28 102 1
28 111 1
28 93 1
28 77 1
28 101 1
28 33 1
28 115 1
28 94 1
28 64 1
28 43 1
28 91 1
28 69 1
28 74 1
28 47 1
28 92 1
28 46 1
28 99 1
28 48 1
28 54 1
28 90 1
28 63 1
28 104 1
29 94 1
29 85 1
29 107 1
29 82 1
29 70 1
29 75 1
29 33 1
29 120 1
29 106 1
29 109 1
29 41 1
29 117 1
29 76 1
29 48 1
29 97 1
29 112 1
29 111 1
29 42 1
29 46 1
29 93 1
29 90 1
29 62 1
29 30 1
29 88 1
29 84 1
29 79 1
29 101 1
29 77 1
29 73 1
29 91 1
29 51 1
29 44 1
29 86 1
29 57 1
29 119 1
29 102 1
29 53 1
29 56 1
30 31 1
30 66 1
30 115 1
30 36 1
30 110 1
30 83 1
30 61 1
30 52 1
30 92 1
30 45 1
30 93 1
30 84 1
30 41 1
30 40 1
30 100 1
30 76 1
30 46 1
30 58 1
30 96 1
30 38 1
30 78 1
30 116 1
30 54 1
30 88 1
30 91 1
30 65 1
30 111 1
30 42 1
30 106 1
30 32 1
30 85 1
30 49 1
30 50 1
30 101 1
30 62 1
30 108 1
30 57 1
30 119 1
30 81 1
30 98 1
30 69 1
30 80 1
30 48 1
30 39 1
30 71 1
30 34 1
30 56 1
30 43 1
30 53 1
30 89 1
30 87 1
30 75 1
30 117 1
31 43 1
31 114 1
31 65 1
31 40 1
31 33 1
31 52 1
31 74 1
31 77 1
31 97 1
31 76 1
31 111 1
31 94 1
31 85 1
31 58 1
31 70 1
31 96 1
31 98 1
31 39 1
31 44 1
31 90 1
31 99 1
31 81 1
31 69 1
31 93 1
31 71 1
31 48 1
31 66 1
31 110 1
31 73 1
31 107 1
31 115 1
31 83 1
31 87 1
31 67 1
31 61 1
31 103 1
31 45 1
31 34 1
31 84 1
31 56 1
31 92 1
31 89 1
31 42 1
31 80 1
31 36 1
31 101 1
31 91 1
32 50 1
32 70 1
32 109 1
32 95 1
32 43 1
32 47 1
32 74 1
32 71 1
32 99 1
32 82 1
32 86 1
32 117 1
32 98 1
32 92 1
32 56 1
32 96 1
32 75 1
32 68 1
32 39 1
32 37 1
32 80 1
32 67 1
32 65 1
32 120 1
32 118 1
32 38 1
32 90 1
32 94 1
32 114 1
32 107 1
32 33 1
32 77 1
32 42 1
32 59 1
32 36 1
32 88 1
32 110 1
32 89 1
32 113 1
32 45 1
32 57 1
32 83 1
32 64 1
32 73 1
32 62 1
33 38 1
33 106 1
33 48 1
33 41 1
33 113 1
33 65 1
33 120 1
33 94 1
33 60 1
33 34 1
33 100 1
33 76 1
33 54 1
33 84 1
33 93 1
33 45 1
33 89 1
33 107 1
33 71 1
33 70 1
33 36 1
33 47 1
33 66 1
33 102 1
33 39 1
33 104 1
33 85 1
33 57 1
33 117 1
33 64 1
33 97 1
33 101 1
33 37 1
33 88 1
33 90 1
33 115 1
33 81 1
33 86 1
33 50 1
33 55 1
33 58 1
33 44 1
33 68 1
34 58 1
34 120 1
34 70 1
34 54 1
34 97 1
34 45 1
34 100 1
34 74 1
34 75 1
34 46 1
34 79 1
34 102 1
34 109 1
34 118 1
34 108 1
34 88 1
34 112 1
34 66 1
34 113 1
34 111 1
34 78 1
34 67 1
34 59 1
34 39 1
34 104 1
34 41 1
34 96 1
34 71 1
34 61 1
34 36 1
34 49 1
34 48 1
34 69 1
34 73 1
34 99 1
34 90 1
34 42 1
34 93 1
34 35 1
34 40 1
34 110 1
34 82 1
34 51 1
34 43 1
34 38 1
34 87 1
34 101 1
35 84 1
35 49 1
35 108 1
35 63 1
35 60 1
35 95 1
35 59 1
35 91 1
35 46 1
35 53 1
35 65 1
35 100 1
35 88 1
35 67 1
35 75 1
35 57 1
35 51 1
35 52 1
35 77 1
35 70 1
35 54 1
35 36 1
35 55 1
35 40 1
35 80 1
35 87 1
35 105 1
35 39 1
35 107 1
35 68 1
35 112 1
35 43 1
35 97 1
35 61 1
35 96 1
35 90 1
35 89 1
35 109 1
35 110 1
35 118 1
36 68 1
36 103 1
36 85 1
36 102 1
36 67 1
36 107 1
36 99 1
36 96 1
36 117 1
36 37 1
36 80 1
36 53 1
36 79 1
36 115 1
36 62 1
36 98 1
36 110 1
36 111 1
36 44 1
36 57 1
36 61 1
36 81 1
36 88 1
36 76 1
36 82 1
36 74 1
36 91 1
36 116 1
36 73 1
36 69 1
36 94 1
36 100 1
36 71 1
36 51 1
36 89 1
36 120 1
36 97 1
36 64 1
36 113 1
36 84 1
37 58 1
37 50 1
37 90 1
37 105 1
37 93 1
37 101 1
37 98 1
37 111 1
37 91 1
37 107 1
37 67 1
37 39 1
37 73 1
37 46 1
37 42 1
37 114 1
37 119 1
37 116 1
37 112 1
37 47 1
37 55 1
37 40 1
37 63 1
37 99 1
37 97 1
37 102 1
37 51 1
37 87 1
37 106 1
37 74 1
37 71 1
37 64 1
37 75 1
37 59 1
37 113 1
37 56 1
37 52 1
37 66 1
38 110 1
38 54 1
38 44 1
38 64 1
38 101 1
38 55 1
38 50 1
38 75 1
38 61 1
38 105 1
38 99 1
38 93 1
38 48 1
38 79 1
38 69 1
38 58 1
38 88 1
38 41 1
38 63 1
38 43 1
38 118 1
38 111 1
38 77 1
38 80 1
38 120 1
38 102 1
38 45 1
38 62 1
38 116 1
38 94 1
38 83 1
38 85 1
38 65 1
38 113 1
38 57 1
38 106 1
39 95 1
39 74 1
39 56 1
39 99 1
39 80 1
39 78 1
39 44 1
39 100 1
39 57 1
39 106 1
39 105 1
39 83 1
39 111 1
39 45 1
39 120 1
39 119 1
39 52 1
39 76 1
39 96 1
39 112 1
39 59 1
39 54 1
39 103 1
39 94 1
39 67 1
39 114 1
39 107 1
39 70 1
39 50 1
39 117 1
39 66 1
39 110 1
39 115 1
39 89 1
39 97 1
39 92 1
39 40 1
39 51 1
39 63 1
39 79 1
39 64 1
39 75 1
39 71 1
39 72 1
40 52 1
40 108 1
40 70 1
40 43 1
40 74 1
40 67 1
40 84 1
40 106 1
40 65 1
40 42 1
40 112 1
40 53 1
40 97 1
40 54 1
40 119 1
40 45 1
40 50 1
40 51 1
40 46 1
40 103 1
40 44 1
40 75 1
40 100 1
40 41 1
40 110 1
40 92 1
40 79 1
40 83 1
40 78 1
40 95 1
40 120 1
40 118 1
40 76 1
40 91 1
40 47 1
40 60 1
40 49 1
40 90 1
40 111 1
40 63 1
41 55 1
41 54 1
41 106 1
41 81 1
41 43 1
41 99 1
41 109 1
41 96 1
41 60 1
41 78 1
41 72 1
41 61 1
41 97 1
41 63 1
41 44 1
41 59 1
41 119 1
41 49 1
41 48 1
41 100 1
41 90 1
41 70 1
41 111 1
41 103 1
41 107 1
41 80 1
41 98 1
41 89 1
41 47 1
41 77 1
41 112 1
41 116 1
41 104 1
41 110 1
41 56 1
41 117 1
42 100 1
42 69 1
42 103 1
42 49 1
42 101 1
42 48 1
42 119 1
42 47 1
42 114 1
42 55 1
42 78 1
42 46 1
42 74 1
42 106 1
42 93 1
42 73 1
42 83 1
42 96 1
42 85 1
42 89 1
42 54 1
42 111 1
42 80 1
42 50 1
42 104 1
42 45 1
42 98 1
42 79 1
42 61 1
42 71 1
42 115 1
42 53 1
42 67 1
42 72 1
42 77 1
42 43 1
42 99 1
42 65 1
42 66 1
42 57 1
42 88 1
42 58 1
42 95 1
42 51 1
42 64 1
42 87 1
42 109 1
43 110 1
43 53 1
43 92 1
43 57 1
43 95 1
43 117 1
43 106 1
43 105 1
43 109 1
43 72 1
43 74 1
43 97 1
43 52 1
43 69 1
43 115 1
43 98 1
43 104 1
43 114 1
43 107 1
43 120 1
43 83 1
43 82 1
43 85 1
43 78 1
43 86 1
43 54 1
43 64 1
43 90 1
43 96 1
43 81 1
43 47 1
43 49 1
43 59 1
43 103 1
43 60 1
43 68 1
43 79 1
43 108 1
43 116 1
43 61 1
44 101 1
44 105 1
44 95 1
44 115 1
44 70 1
44 114 1
44 83 1
44 104 1
44 97 1
44 117 1
44 69 1
44 57 1
44 67 1
44 65 1
44 96 1
44 106 1
44 55 1
44 62 1
44 98 1
44 52 1
44 90 1
44 107 1
44 81 1
44 61 1
44 72 1
44 103 1
44 74 1
44 58 1
44 54 1
44 88 1
44 86 1
44 102 1
44 51 1
44 79 1
44 63 1
44 59 1
45 107 1
45 96 1
45 99 1
45 48 1
45 83 1
45 91 1
45 95 1
45 112 1
45 81 1
45 106 1
45 60 1
45 53 1
45 80 1
45 54 1
45 55 1
45 79 1
45 47 1
45 64 1
45 82 1
45 68 1
45 51 1
45 46 1
45 70 1
45 61 1
45 56 1
45 62 1
45 100 1
45 102 1
45 73 1
45 72 1
45 77 1
45 105 1
45 115 1
45 76 1
45 117 1
45 97 1
45 85 1
45 118 1
45 120 1
46 56 1
46 48 1
46 111 1
46 51 1
46 97 1
46 116 1
46 103 1
46 73 1
46 101 1
46 57 1
46 119 1
46 109 1
46 104 1
46 94 1
46 106 1
46 79 1
46 80 1
46 60 1
46 85 1
46 63 1
46 113 1
46 86 1
46 108 1
46 78 1
46 87 1
46 68 1
46 96 1
46 89 1
46 112 1
46 50 1
46 115 1
46 105 1
46 74 1
46 47 1
47 118 1
47 91 1
47 69 1
47 60 1
47 88 1
47 77 1
47 113 1
47 111 1
47 48 1
47 108 1
47 55 1
47 81 1
47 59 1
47 99 1
47 93 1
47 109 1
47 92 1
47 66 1
47 72 1
47 82 1
47 97 1
47 75 1
47 68 1
47 89 1
47 105 1
47 101 1
47 83 1
47 87 1
47 84 1
47 96 1
47 85 1
47 120 1
47 57 1
47 107 1
48 101 1
48 51 1
48 72 1
48 50 1
48 52 1
48 71 1
48 94 1
48 74 1
48 79 1
48 57 1
48 59 1
48 53 1
48 98 1
48 69 1
48 105 1
48 63 1
48 115 1
48 76 1
48 108 1
48 119 1
48 112 1
48 55 1
48 117 1
48 77 1
48 80 1
48 107 1
48 106 1
48 92 1
48 96 1
48 56 1
48 118 1
49 118 1
49 107 1
49 113 1
49 66 1
49 77 1
49 115 1
49 82 1
49 110 1
49 112 1
49 52 1
49 85 1
49 104 1
49 105 1
49 73 1
49 87 1
49 74 1
49 75 1
49 61 1
49 91 1
49 76 1
49 84 1
49 92 1
49 67 1
49 101 1
49 54 1
49 71 1
49 79 1
49 94 1
49 60 1
49 59 1
49 51 1
49 114 1
50 53 1
50 108 1
50 113 1
50 60 1
50 96 1
50 76 1
50 64 1
50 107 1
50 68 1
50 112 1
50 80 1
50 102 1
50 117 1
50 55 1
50 114 1
50 51 1
50 84 1
50 59 1
50 91 1
50 69 1
50 95 1
50 86 1
50 79 1
50 119 1
50 63 1
50 111 1
50 94 1
50 71 1
50 70 1
51 96 1
51 104 1
51 55 1
51 105 1
51 75 1
51 53 1
51 118 1
51 117 1
51 59 1
51 94 1
51 76 1
51 88 1
51 85 1
51 110 1
51 100 1
51 103 1
51 83 1
51 107 1
51 61 1
51 57 1
51 119 1
51 67 1
51 77 1
51 60 1
51 95 1
51 91 1
51 93 1
51 115 1
51 108 1
51 99 1
51 102 1
51 78 1
51 62 1
52 67 1
52 96 1
52 93 1
52 64 1
52 84 1
52 53 1
52 101 1
52 119 1
52 105 1
52 95 1
52 90 1
52 116 1
52 107 1
52 109 1
52 82 1
52 56 1
52 114 1
52 81 1
52 59 1
52 61 1
52 69 1
52 71 1
52 120 1
52 60 1
52 66 1
52 77 1
52 117 1
52 100 1
52 76 1
52 98 1
52 87 1
52 97 1
52 102 1
52 115 1
52 110 1
52 85 1
53 65 1
53 55 1
53 64 1
53 114 1
53 79 1
53 62 1
53 104 1
53 72 1
53 60 1
53 109 1
53 81 1
53 57 1
53 76 1
53 74 1
53 78 1
53 117 1
53 83 1
53 90 1
53 93 1
53 59 1
53 100 1
53 112 1
53 61 1
53 87 1
53 103 1
53 63 1
53 54 1
53 77 1
53 101 1
53 75 1
53 82 1
53 111 1
53 70 1
53 120 1
53 86 1
53 69 1
53 94 1
53 95 1
53 116 1
53 113 1
54 68 1
54 76 1
54 104 1
54 110 1
54 100 1
54 62 1
54 57 1
54 56 1
54 120 1
54 101 1
54 63 1
54 75 1
54 99 1
54 102 1
54 118 1
54 108 1
54 96 1
54 90 1
54 87 1
54 82 1
54 73 1
54 86 1
54 74 1
54 92 1
54 93 1
54 115 1
54 70 1
54 59 1
54 91 1
54 94 1
54 66 1
54 67 1
55 101 1
55 117 1
55 87 1
55 111 1
55 90 1
55 70 1
55 61 1
55 88 1
55 82 1
55 96 1
55 86 1
55 72 1
55 105 1
55 100 1
55 107 1
55 67 1
55 84 1
55 76 1
55 69 1
55 102 1
55 66 1
55 93 1
55 119 1
55 62 1
55 91 1
55 94 1
55 80 1
55 65 1
55 114 1
55 56 1
55 75 1
55 97 1
55 104 1
55 58 1
55 74 1
56 83 1
56 71 1
56 108 1
56 102 1
56 68 1
56 109 1
56 64 1
56 95 1
56 90 1
56 103 1
56 110 1
56 80 1
56 97 1
56 92 1
56 120 1
56 94 1
56 100 1
56 76 1
56 113 1
56 75 1
56 58 1
56 105 1
56 106 1
56 88 1
56 62 1
56 72 1
56 81 1
56 67 1
56 78 1
56 57 1
57 81 1
57 73 1
57 70 1
57 87 1
57 86 1
57 67 1
57 94 1
57 107 1
57 68 1
57 101 1
57 105 1
57 75 1
57 98 1
57 58 1
57 89 1
57 111 1
57 83 1
57 115 1
57 71 1
57 84 1
57 112 1
57 82 1
57 116 1
57 118 1
57 72 1
57 103 1
57 117 1
57 62 1
57 63 1
57 114 1
57 66 1
57 104 1
57 96 1
57 79 1
57 93 1
57 78 1
57 110 1
57 100 1
57 95 1
57 106 1
58 77 1
58 99 1
58 108 1
58 84 1
58 63 1
58 118 1
58 81 1
58 80 1
58 110 1
58 88 1
58 75 1
58 66 1
58 73 1
58 111 1
58 112 1
58 119 1
58 90 1
58 69 1
58 117 1
58 115 1
58 92 1
58 104 1
58 70 1
58 71 1
58 68 1
58 96 1
58 109 1
58 60 1
58 105 1
58 64 1
58 107 1
58 114 1
58 97 1
58 103 1
59 70 1
59 86 1
59 71 1
59 93 1
59 78 1
59 116 1
59 111 1
59 119 1
59 117 1
59 69 1
59 103 1
59 107 1
59 88 1
59 67 1
59 76 1
59 109 1
59 74 1
59 98 1
59 87 1
59 61 1
59 120 1
59 85 1
59 64 1
59 89 1
59 63 1
59 95 1
60 116 1
60 69 1
60 98 1
60 67 1
60 89 1
60 84 1
60 86 1
60 102 1
60 77 1
60 70 1
60 111 1
60 118 1
60 81 1
60 68 1
60 73 1
60 106 1
60 105 1
60 74 1
60 80 1
60 90 1
60 109 1
60 114 1
60 103 1
60 76 1
60 79 1
61 106 1
61 114 1
61 119 1
61 98 1
61 79 1
61 77 1
61 84 1
61 63 1
61 111 1
61 94 1
61 102 1
61 82 1
61 81 1
61 66 1
61 64 1
61 85 1
61 103 1
61 88 1
61 70 1
61 80 1
61 118 1
61 71 1
61 107 1
61 83 1
61 68 1
61 117 1
61 95 1
62 109 1
62 94 1
62 90 1
62 84 1
62 108 1
62 83 1
62 96 1
62 103 1
62 91 1
62 71 1
62 70 1
62 112 1
62 80 1
62 88 1
62 77 1
62 116 1
62 87 1
62 107 1
62 104 1
62 63 1
62 82 1
62 69 1
62 68 1
62 117 1
62 66 1
62 75 1
62 115 1
62 74 1
62 93 1
62 110 1
63 109 1
63 90 1
63 119 1
63 72 1
63 96 1
63 81 1
63 110 1
63 73 1
63 98 1
63 117 1
63 77 1
63 103 1
63 64 1
63 65 1
63 79 1
63 100 1
63 111 1
63 92 1
63 105 1
63 89 1
63 113 1
63 75 1
63 85 1
63 101 1
63 116 1
63 108 1
63 91 1
63 70 1
64 77 1
64 93 1
64 98 1
64 96 1
64 110 1
64 67 1
64 84 1
64 119 1
64 116 1
64 86 1
64 109 1
64 88 1
64 75 1
64 99 1
64 81 1
64 70 1
64 107 1
64 95 1
64 114 1
64 66 1
64 76 1
64 65 1
64 106 1
64 100 1
64 117 1
64 85 1
64 79 1
64 102 1
64 80 1
65 114 1
65 93 1
65 102 1
65 115 1
65 99 1
65 78 1
65 107 1
65 101 1
65 68 1
65 91 1
65 87 1
65 96 1
65 83 1
65 66 1
65 119 1
65 111 1
65 86 1
65 94 1
65 95 1
65 103 1
65 73 1
65 74 1
65 76 1
65 97 1
65 89 1
65 69 1
65 82 1
65 112 1
65 67 1
66 86 1
66 93 1
66 94 1
66 89 1
66 107 1
66 98 1
66 91 1
66 108 1
66 74 1
66 106 1
66 100 1
66 83 1
66 113 1
66 112 1
66 90 1
66 73 1
66 95 1
66 99 1
66 68 1
66 80 1
66 71 1
66 120 1
66 82 1
67 117 1
67 114 1
67 73 1
67 75 1
67 76 1
67 92 1
67 74 1
67 97 1
67 80 1
67 116 1
67 95 1
67 84 1
67 68 1
67 115 1
67 99 1
67 110 1
67 108 1
67 98 1
67 109 1
67 85 1
67 106 1
67 94 1
67 100 1
67 112 1
68 93 1
68 70 1
68 92 1
68 76 1
68 83 1
68 71 1
68 74 1
68 69 1
68 75 1
68 105 1
68 90 1
68 94 1
68 120 1
68 99 1
68 102 1
68 101 1
68 86 1
68 110 1
68 104 1
68 88 1
68 87 1
68 97 1
68 109 1
68 89 1
68 73 1
68 91 1
69 87 1
69 109 1
69 96 1
69 110 1
69 103 1
69 107 1
69 106 1
69 81 1
69 117 1
69 95 1
69 114 1
69 104 1
69 72 1
69 119 1
69 93 1
69 71 1
69 115 1
69 97 1
69 74 1
69 101 1
70 74 1
70 82 1
70 119 1
70 88 1
70 85 1
70 106 1
70 96 1
70 120 1
70 76 1
70 105 1
70 101 1
70 84 1
70 97 1
70 91 1
70 98 1
70 87 1
70 93 1
70 75 1
70 92 1
71 99 1
71 101 1
71 86 1
71 107 1
71 116 1
71 75 1
71 82 1
71 92 1
71 104 1
71 105 1
71 110 1
71 120 1
71 117 1
71 94 1
71 73 1
71 91 1
71 85 1
71 74 1
71 118 1
71 113 1
71 103 1
71 81 1
71 95 1
71 112 1
71 108 1
71 98 1
71 114 1
71 76 1
71 80 1
71 119 1
72 93 1
72 98 1
72 76 1
72 89 1
72 104 1
72 99 1
72 100 1
72 105 1
72 80 1
72 78 1
72 111 1
72 101 1
72 90 1
72 107 1
72 85 1
72 73 1
72 97 1
72 94 1
72 83 1
72 116 1
72 114 1
72 79 1
72 113 1
72 81 1
72 120 1
72 95 1
72 109 1
72 87 1
73 87 1
73 101 1
73 92 1
73 75 1
73 78 1
73 115 1
73 107 1
73 85 1
73 76 1
73 81 1
73 93 1
73 102 1
73 105 1
73 103 1
73 74 1
73 110 1
73 83 1
73 88 1
73 100 1
73 98 1
73 119 1
73 97 1
73 112 1
73 106 1
73 111 1
73 89 1
73 86 1
73 90 1
74 92 1
74 79 1
74 77 1
74 111 1
74 120 1
74 106 1
74 91 1
74 117 1
74 85 1
74 94 1
74 115 1
74 76 1
74 113 1
74 105 1
74 100 1
74 80 1
74 90 1
74 78 1
74 107 1
74 97 1
74 108 1
74 112 1
74 104 1
74 119 1
74 95 1
74 98 1
74 82 1
74 109 1
74 118 1
75 101 1
75 120 1
75 111 1
75 85 1
75 81 1
75 79 1
75 118 1
75 83 1
75 112 1
75 82 1
75 89 1
75 107 1
75 78 1
75 92 1
75 95 1
75 113 1
75 77 1
75 91 1
75 84 1
76 86 1
76 112 1
76 85 1
76 101 1
76 111 1
76 90 1
76 117 1
76 99 1
76 103 1
76 91 1
76 108 1
76 98 1
76 83 1
76 95 1
76 110 1
76 82 1
76 119 1
76 109 1
76 80 1
76 87 1
76 96 1
77 94 1
77 112 1
77 104 1
77 84 1
77 102 1
77 83 1
77 93 1
77 113 1
77 97 1
77 91 1
77 100 1
77 99 1
77 95 1
77 119 1
77 82 1
77 78 1
77 98 1
77 114 1
77 106 1
77 101 1
77 117 1
77 110 1
78 108 1
78 112 1
78 118 1
78 89 1
78 96 1
78 106 1
78 115 1
78 93 1
78 81 1
78 117 1
78 92 1
78 98 1
78 80 1
78 87 1
78 110 1
78 97 1
79 97 1
79 91 1
79 96 1
79 80 1
79 104 1
79 109 1
79 90 1
79 110 1
79 118 1
79 84 1
79 101 1
79 117 1
79 81 1
79 106 1
79 95 1
79 88 1
79 86 1
79 120 1
79 83 1
79 87 1
79 108 1
79 102 1
79 112 1
79 103 1
79 113 1
79 92 1
79 116 1
80 103 1
80 108 1
80 87 1
80 120 1
80 109 1
80 88 1
80 110 1
80 114 1
80 82 1
80 117 1
80 104 1
80 111 1
80 100 1
80 113 1
80 99 1
80 102 1
80 115 1
80 95 1
80 105 1
80 118 1
80 119 1
80 84 1
80 97 1
80 106 1
80 98 1
80 81 1
80 92 1
81 99 1
81 96 1
81 118 1
81 85 1
81 115 1
81 119 1
81 98 1
81 88 1
81 91 1
81 84 1
81 97 1
81 117 1
81 111 1
81 92 1
81 93 1
81 87 1
81 100 1
81 120 1
81 105 1
82 84 1
82 97 1
82 93 1
82 91 1
82 120 1
82 111 1
82 94 1
82 116 1
82 107 1
82 99 1
82 90 1
82 113 1
82 87 1
82 101 1
82 112 1
82 109 1
82 105 1
82 102 1
82 117 1
82 114 1
82 96 1
82 103 1
83 117 1
83 100 1
83 105 1
83 88 1
83 92 1
83 96 1
83 115 1
83 98 1
83 108 1
83 112 1
83 97 1
83 99 1
83 116 1
83 109 1
83 110 1
83 114 1
84 101 1
84 92 1
84 115 1
84 114 1
84 109 1
84 85 1
84 108 1
84 110 1
84 102 1
84 91 1
84 105 1
84 89 1
84 90 1
84 96 1
84 104 1
84 111 1
84 113 1
84 95 1
85 92 1
85 114 1
85 119 1
85 95 1
85 107 1
85 112 1
85 90 1
85 98 1
85 117 1
85 100 1
85 96 1
85 91 1
85 111 1
85 116 1
85 113 1
85 101 1
86 109 1
86 98 1
86 94 1
86 103 1
86 101 1
86 117 1
86 120 1
86 97 1
86 110 1
86 104 1
86 99 1
86 112 1
86 100 1
86 88 1
87 110 1
87 100 1
87 103 1
87 94 1
87 119 1
87 108 1
87 105 1
87 113 1
87 109 1
87 117 1
87 120 1
87 99 1
87 93 1
87 111 1
87 104 1
87 102 1
87 107 1
87 116 1
87 97 1
87 115 1
87 96 1
87 95 1
88 96 1
88 117 1
88 94 1
88 110 1
88 101 1
88 116 1
88 109 1
88 95 1
88 90 1
88 108 1
88 119 1
88 89 1
88 102 1
88 107 1
88 106 1
88 115 1
89 105 1
89 114 1
89 103 1
89 92 1
89 94 1
89 98 1
89 97 1
89 102 1
89 104 1
89 118 1
89 116 1
89 93 1
89 110 1
89 113 1
89 91 1
90 110 1
90 91 1
90 111 1
90 115 1
90 114 1
90 98 1
90 93 1
90 104 1
90 96 1
90 113 1
90 94 1
90 107 1
90 100 1
90 102 1
90 101 1
91 97 1
91 106 1
91 100 1
91 101 1
91 117 1
91 109 1
91 92 1
91 107 1
91 111 1
91 119 1
91 112 1
91 110 1
91 102 1
91 120 1
91 118 1
91 114 1
92 100 1
92 104 1
92 114 1
92 94 1
92 115 1
92 119 1
92 111 1
92 106 1
92 105 1
92 107 1
92 108 1
92 97 1
92 113 1
92 99 1
92 103 1
92 116 1
92 95 1
92 117 1
92 120 1
92 101 1
92 110 1
93 120 1
93 98 1
93 113 1
93 107 1
93 105 1
93 94 1
93 108 1
93 115 1
93 118 1
93 104 1
93 102 1
93 100 1
93 97 1
94 112 1
94 101 1
94 118 1
94 113 1
94 117 1
94 110 1
94 114 1
94 106 1
94 111 1
94 98 1
94 105 1
94 96 1
94 100 1
94 108 1
94 95 1
94 104 1
94 97 1
95 106 1
95 100 1
95 110 1
95 104 1
95 109 1
95 103 1
95 102 1
95 101 1
95 99 1
95 108 1
96 103 1
96 110 1
96 104 1
96 120 1
96 111 1
96 117 1
96 100 1
97 114 1
97 104 1
97 118 1
97 120 1
97 98 1
97 103 1
97 99 1
97 119 1
97 101 1
97 117 1
97 108 1
98 110 1
98 99 1
98 107 1
98 114 1
98 103 1
98 102 1
98 117 1
98 120 1
98 104 1
98 100 1
98 109 1
99 117 1
99 115 1
99 118 1
99 105 1
99 107 1
99 111 1
99 109 1
100 113 1
100 114 1
100 103 1
100 120 1
100 104 1
100 118 1
100 111 1
100 110 1
100 115 1
101 116 1
101 108 1
101 120 1
101 113 1
101 114 1
101 111 1
101 112 1
101 104 1
101 103 1
101 119 1
101 102 1
101 118 1
102 111 1
102 115 1
102 103 1
102 119 1
102 104 1
102 114 1
103 106 1
103 113 1
103 107 1
103 114 1
103 116 1
103 118 1
103 119 1
104 118 1
104 117 1
104 106 1
104 119 1
104 116 1
104 107 1
104 114 1
104 110 1
104 109 1
104 115 1
104 111 1
105 114 1
105 109 1
105 107 1
105 113 1
105 116 1
105 117 1
106 118 1
106 119 1
106 111 1
106 108 1
106 112 1
106 117 1
106 115 1
106 116 1
106 120 1
107 112 1
107 108 1
107 118 1
107 117 1
107 120 1
108 115 1
108 120 1
108 110 1
108 117 1
108 111 1
109 110 1
109 116 1
109 118 1
109 115 1
110 118 1
110 120 1
111 115 1
111 112 1
111 114 1
111 113 1
112 117 1
112 116 1
112 120 1
112 114 1
113 119 1
113 116 1
113 118 1
114 118 1
114 115 1
114 116 1
114 119 1
115 119 1
115 116 1
116 120 1
116 118 1
116 119 1
117 119 1
